*SENSE:Minimize
NAME          MODEL
ROWS
 N  OBJ
 E  C0000000
 E  C0000001
 E  C0000002
 E  C0000003
 E  C0000004
 E  C0000005
 E  C0000006
 E  C0000007
 E  C0000008
COLUMNS
    MARK      'MARKER'                 'INTORG'
    X0000000  C0000000   3.700000000000e+01
    MARK      'MARKER'                 'INTEND'
    MARK      'MARKER'                 'INTORG'
    X0000001  C0000001   4.100000000000e+01
    MARK      'MARKER'                 'INTEND'
    MARK      'MARKER'                 'INTORG'
    X0000002  C0000002   5.870000000000e+02
    MARK      'MARKER'                 'INTEND'
    MARK      'MARKER'                 'INTORG'
    X0000003  C0000003   1.300000000000e+01
    MARK      'MARKER'                 'INTEND'
    MARK      'MARKER'                 'INTORG'
    X0000004  C0000004   1.900000000000e+01
    MARK      'MARKER'                 'INTEND'
    MARK      'MARKER'                 'INTORG'
    X0000005  C0000005   2.300000000000e+01
    MARK      'MARKER'                 'INTEND'
    MARK      'MARKER'                 'INTORG'
    X0000006  C0000006   2.900000000000e+01
    MARK      'MARKER'                 'INTEND'
    MARK      'MARKER'                 'INTORG'
    X0000007  C0000007   7.330000000000e+02
    MARK      'MARKER'                 'INTEND'
    MARK      'MARKER'                 'INTORG'
    X0000008  C0000008   1.700000000000e+01
    MARK      'MARKER'                 'INTEND'
    MARK      'MARKER'                 'INTORG'
    X0000009  C0000000  -1.000000000000e+00
    X0000009  C0000001  -1.000000000000e+00
    X0000009  C0000002  -1.000000000000e+00
    X0000009  C0000003  -1.000000000000e+00
    X0000009  C0000004  -1.000000000000e+00
    X0000009  C0000005  -1.000000000000e+00
    X0000009  C0000006  -1.000000000000e+00
    X0000009  C0000007  -1.000000000000e+00
    X0000009  C0000008  -1.000000000000e+00
    X0000009  OBJ        1.000000000000e+00
    MARK      'MARKER'                 'INTEND'
RHS
    RHS       C0000000   0.000000000000e+00
    RHS       C0000001   2.700000000000e+01
    RHS       C0000002   3.700000000000e+01
    RHS       C0000003   5.500000000000e+01
    RHS       C0000004   5.600000000000e+01
    RHS       C0000005   6.000000000000e+01
    RHS       C0000006   6.600000000000e+01
    RHS       C0000007   6.800000000000e+01
    RHS       C0000008   8.500000000000e+01
BOUNDS
 LO BND       X0000000   0.000000000000e+00
 LO BND       X0000001   0.000000000000e+00
 LO BND       X0000002   0.000000000000e+00
 LO BND       X0000003   0.000000000000e+00
 LO BND       X0000004   0.000000000000e+00
 LO BND       X0000005   0.000000000000e+00
 LO BND       X0000006   0.000000000000e+00
 LO BND       X0000007   0.000000000000e+00
 LO BND       X0000008   0.000000000000e+00
 LO BND       X0000009   0.000000000000e+00
ENDATA
